Version identifier: 22.1.1.0 | 2022-11-28 | 9160aff4d
CPXPARAM_ClockType                               1
CPXPARAM_Read_DataCheck                          1
CPXPARAM_Threads                                 1
CPXPARAM_TimeLimit                               7200
CPXPARAM_MIP_Tolerances_AbsMIPGap                0
CPXPARAM_MIP_Tolerances_MIPGap                   0
CPXPARAM_MIP_Tolerances_Integrality              0
Tried aggregator 2 times.
MIP Presolve eliminated 3440 rows and 0 columns.
MIP Presolve modified 3050 coefficients.
Aggregator did 1000 substitutions.
Reduced MIP has 4260 rows, 2500 columns, and 12110 nonzeros.
Reduced MIP has 2500 binaries, 0 generals, 0 SOSs, and 0 indicators.
Presolve time = 0.03 sec. (20.82 ticks)
Found incumbent of value -1846.000000 after 0.07 sec. (40.04 ticks)
Probing time = 0.00 sec. (2.46 ticks)
Tried aggregator 1 time.
Detecting symmetries...
MIP Presolve eliminated 200 rows and 0 columns.
Reduced MIP has 4060 rows, 2500 columns, and 11110 nonzeros.
Reduced MIP has 2500 binaries, 0 generals, 0 SOSs, and 0 indicators.
Presolve time = 0.02 sec. (13.88 ticks)
Probing time = 0.01 sec. (2.36 ticks)
Clique table members: 7360.
MIP emphasis: balance optimality and feasibility.
MIP search method: dynamic search.
Parallel mode: none, using 1 thread.
Root relaxation solution time = 0.25 sec. (193.20 ticks)

        Nodes                                         Cuts/
   Node  Left     Objective  IInf  Best Integer    Best Bound    ItCnt     Gap

*     0+    0                        -1846.0000      500.0000           127.09%
      0     0      200.0000   877    -1846.0000      200.0000     2105  110.83%
*     0+    0                          176.0000      200.0000            13.64%
*     0+    0                          198.0000      200.0000             1.01%
*     0+    0                          200.0000      200.0000             0.00%
      0     0        cutoff            200.0000      200.0000     2105    0.00%
      0     0        cutoff            200.0000      200.0000     2105    0.00%
Elapsed time = 1.42 sec. (1036.87 ticks, tree = 0.01 MB, solutions = 4)

Root node processing (before b&c):
  Real time             =    1.42 sec. (1037.08 ticks)
Sequential b&c:
  Real time             =    0.00 sec. (0.00 ticks)
                          ------------
Total (root+branch&cut) =    1.42 sec. (1037.08 ticks)
Solution is feasible.

---------------------
@@@ MIP_optimal
>>> Benchmark sw100-7.cnf k 2 OPT 200 TimeCost 2.158303737640381 TimeSolve 1.4370732307434082 TimeRead 0.007119655609130859 TimeTrans 0.7141108512878418
